c A SAT instance generated from a 3-CNF formula that had 40 clauses and 10 variables
p cnf 10 40
10 6 9 0
2 1 6 0
8 7 5 0
1 -8 5 0
7 -2 -6 0
5 -6 4 0
-8 1 9 0
6 4 -2 0
3 7 -10 0
-6 10 -4 0
6 1 7 0
8 6 -3 0
-7 -2 8 0
1 2 -3 0
-8 -4 10 0
-5 -8 9 0
8 -5 9 0
-3 5 7 0
-7 4 -6 0
3 -4 9 0
9 8 3 0
4 -5 -1 0
-1 9 5 0
7 2 -10 0
-10 -4 -1 0
-3 6 5 0
-1 2 7 0
8 7 1 0
-2 -4 -8 0
9 3 2 0
-5 2 7 0
-10 -9 2 0
-7 9 -3 0
-4 1 9 0
-7 5 9 0
-3 -6 -2 0
10 2 -8 0
-6 -4 -5 0
-7 -3 -8 0
-9 1 6 0
